p wcnf 178 356 357 
1 -71 162 0 
1 -119 -136 0 
1 -149 -87 0 
1 123 61 0 
1 -103 -38 0 
1 -112 8 0 
1 -32 124 0 
1 137 -121 0 
1 -118 83 0 
1 24 -108 0 
1 -49 1 0 
1 -76 117 0 
1 -140 -100 0 
1 102 168 0 
1 138 10 0 
1 121 83 0 
1 42 -85 0 
1 -160 -122 0 
1 -148 -95 0 
1 -47 116 0 
1 -58 -175 0 
1 32 -59 0 
1 -52 75 0 
1 -28 -55 0 
1 176 48 0 
1 60 -128 0 
1 -133 90 0 
1 -121 43 0 
1 7 138 0 
1 86 -77 0 
1 137 78 0 
1 36 -160 0 
1 120 -79 0 
1 -100 127 0 
1 -126 -156 0 
1 -125 -88 0 
1 -123 71 0 
1 33 169 0 
1 -164 143 0 
1 127 -67 0 
1 162 -177 0 
1 160 -117 0 
1 106 30 0 
1 -89 16 0 
1 -148 -146 0 
1 173 -59 0 
1 3 18 0 
1 146 -99 0 
1 -100 167 0 
1 154 125 0 
1 -92 -162 0 
1 -55 11 0 
1 113 105 0 
1 110 -162 0 
1 -138 87 0 
1 124 114 0 
1 -84 -88 0 
1 81 -160 0 
1 -48 18 0 
1 40 -52 0 
1 91 143 0 
1 141 3 0 
1 93 -42 0 
1 151 144 0 
1 35 146 0 
1 -87 -80 0 
1 -50 -169 0 
1 151 167 0 
1 -141 117 0 
1 51 -58 0 
1 -123 -173 0 
1 142 101 0 
1 -154 -178 0 
1 -109 127 0 
1 72 -176 0 
1 99 4 0 
1 17 -126 0 
1 -44 155 0 
1 -28 16 0 
1 154 -133 0 
1 -163 19 0 
1 24 30 0 
1 3 -13 0 
1 33 56 0 
1 127 -33 0 
1 -167 54 0 
1 150 -69 0 
1 -40 -138 0 
1 -125 -105 0 
1 103 -140 0 
1 -107 -80 0 
1 -150 -131 0 
1 -132 -49 0 
1 -13 107 0 
1 -92 172 0 
1 -171 35 0 
1 123 -30 0 
1 153 -77 0 
1 103 49 0 
1 -141 147 0 
1 -130 3 0 
1 -122 42 0 
1 -81 -59 0 
1 -61 84 0 
1 -136 159 0 
1 156 34 0 
1 50 80 0 
1 27 -149 0 
1 172 -91 0 
1 -37 -109 0 
1 -89 -81 0 
1 -9 97 0 
1 104 -118 0 
1 -49 -19 0 
1 93 -99 0 
1 -23 -131 0 
1 -146 -140 0 
1 -154 -160 0 
1 28 -25 0 
1 -47 167 0 
1 164 15 0 
1 -29 156 0 
1 103 -9 0 
1 117 -84 0 
1 -15 -91 0 
1 138 -158 0 
1 61 50 0 
1 -121 161 0 
1 -60 1 0 
1 -110 78 0 
1 -104 168 0 
1 -128 162 0 
1 -6 104 0 
1 -146 -46 0 
1 49 -85 0 
1 16 -139 0 
1 36 19 0 
1 173 128 0 
1 74 -133 0 
1 -134 -1 0 
1 102 -142 0 
1 -27 43 0 
1 -162 164 0 
1 -166 8 0 
1 143 -178 0 
1 45 72 0 
1 175 24 0 
1 -97 -78 0 
1 22 -89 0 
1 89 164 0 
1 -73 -18 0 
1 -55 15 0 
1 138 -62 0 
1 -116 -130 0 
1 -164 33 0 
1 98 88 0 
1 -172 32 0 
1 110 173 0 
1 33 160 0 
1 -172 -37 0 
1 165 -126 0 
1 174 -137 0 
1 103 -51 0 
1 121 -124 0 
1 -110 -90 0 
1 145 -74 0 
1 85 58 0 
1 85 176 0 
1 86 -2 0 
1 -138 -167 0 
1 161 -54 0 
1 -19 26 0 
1 -131 -169 0 
1 38 45 0 
1 -151 -95 0 
1 24 -103 0 
1 135 18 0 
1 178 149 0 
1 149 19 0 
1 70 89 0 
1 105 84 0 
1 -11 142 0 
1 46 -67 0 
1 40 -82 0 
1 -44 -24 0 
1 30 139 0 
1 -112 -41 0 
1 -110 -176 0 
1 -36 42 0 
1 -4 35 0 
1 -85 48 0 
1 174 -41 0 
1 -112 -15 0 
1 7 156 0 
1 39 -150 0 
1 67 128 0 
1 32 -58 0 
1 54 -66 0 
1 -61 -2 0 
1 -171 127 0 
1 -140 -108 0 
1 -46 24 0 
1 118 119 0 
1 96 -144 0 
1 30 -48 0 
1 165 17 0 
1 -59 -123 0 
1 -127 -142 0 
1 -98 -55 0 
1 10 -147 0 
1 119 32 0 
1 57 -4 0 
1 154 -25 0 
1 167 -14 0 
1 -6 71 0 
1 14 -91 0 
1 -122 92 0 
1 -166 124 0 
1 -140 -116 0 
1 -141 24 0 
1 13 -160 0 
1 64 5 0 
1 -48 94 0 
1 -147 118 0 
1 79 -8 0 
1 113 -89 0 
1 -48 166 0 
1 -8 72 0 
1 28 -118 0 
1 -90 162 0 
1 -95 -68 0 
1 82 137 0 
1 -98 -32 0 
1 -120 40 0 
1 72 -106 0 
1 -176 35 0 
1 140 -61 0 
1 131 -148 0 
1 -175 -80 0 
1 72 -76 0 
1 -71 -22 0 
1 -105 113 0 
1 -170 -69 0 
1 -38 19 0 
1 -150 -22 0 
1 104 135 0 
1 -154 -72 0 
1 121 171 0 
1 -114 -92 0 
1 -109 68 0 
1 123 -75 0 
1 43 115 0 
1 -139 138 0 
1 122 131 0 
1 78 -119 0 
1 -34 141 0 
1 -150 127 0 
1 89 -156 0 
1 144 95 0 
1 -124 -144 0 
1 -75 -78 0 
1 -38 -69 0 
1 -80 101 0 
1 130 -177 0 
1 33 -5 0 
1 -140 -152 0 
1 -74 88 0 
1 28 53 0 
1 13 -95 0 
1 -56 -92 0 
1 87 -58 0 
1 11 -44 0 
1 -134 -73 0 
1 -127 47 0 
1 -22 84 0 
1 154 75 0 
1 -126 20 0 
1 -177 82 0 
1 -66 157 0 
1 36 100 0 
1 51 105 0 
1 138 -74 0 
1 71 95 0 
1 113 94 0 
1 -1 102 0 
1 -3 109 0 
1 -11 -76 0 
1 -132 -155 0 
1 -31 -153 0 
1 -98 -84 0 
1 72 128 0 
1 -94 47 0 
1 -5 45 0 
1 35 -62 0 
1 -115 -41 0 
1 -24 92 0 
1 -118 163 0 
1 -55 -158 0 
1 6 3 0 
1 66 102 0 
1 144 51 0 
1 97 -129 0 
1 -127 -103 0 
1 -163 -119 0 
1 19 1 0 
1 111 -160 0 
1 50 -139 0 
1 161 148 0 
1 -160 -148 0 
1 94 164 0 
1 22 21 0 
1 -131 -162 0 
1 25 -89 0 
1 126 132 0 
1 91 -11 0 
1 76 -109 0 
1 -33 -54 0 
1 -119 160 0 
1 -64 20 0 
1 -152 146 0 
1 -148 48 0 
1 -177 124 0 
1 -170 -149 0 
1 39 6 0 
1 -9 155 0 
1 -12 -67 0 
1 -127 69 0 
1 -161 57 0 
1 111 -170 0 
1 164 -101 0 
1 -169 19 0 
1 60 -3 0 
1 22 -134 0 
1 -144 167 0 
1 -48 33 0 
1 123 142 0 
1 -62 -52 0 
1 42 90 0 
1 -95 -159 0 
1 -90 -158 0 
1 96 139 0 
1 58 141 0 
1 -146 28 0 
1 -130 120 0 
1 -18 -47 0 
1 -172 113 0 
1 101 -145 0 
1 68 -19 0 
1 -145 -7 0 
1 143 60 0 
1 -155 -133 0 
1 -139 113 0 
1 -29 116 0 
1 -24 147 0 
1 -2 -82 0 
1 -160 93 0 
